p cnf 20 20
-9 -5 -14 0
-13 -15 17 0
-6 1 -14 0
13 3 -15 0
-20 -12 8 0
-9 15 13 0
9 -15 -13 0
19 -8 -14 0
13 -11 -18 0
11 16 7 0
3 19 -7 0
-14 -17 -19 0
-11 -20 14 0
20 -17 15 0
7 -3 9 0
3 1 -16 0
1 -15 10 0
20 -11 -5 0
10 13 -5 0
14 13 7 0
